\ENCODING=ISO-8859-1
\Problem name: IloCplex

Minimize
 obj: 1000000000000 l0 + l113 + 1000000000000 l1 + l104 + l114
      + 1000000000000 l2 + l115 + 1000000000000 l3 + l116 + 1000000000000 l4
      + l117 + 1000000000000 l5 + l118 + 1000000000000 l6 + l119
      + 1000000000000 l7 + l164 + 1000000000000 l8 + l120 + l128 + l215
      + 1000000000000 l9 + l149 + l165 + l214 + 1000000000000 l10 + l153 + l166
      + l246 + 1000000000000 l11 + l143 + l163 + l169 + l188 + l192
      + 1000000000000 l12 + l129 + l167 + l175 + l182 + l189 + l239
      + 1000000000000 l13 + l145 + l148 + l161 + l176 + 1000000000000 l14
      + l139 + l144 + l147 + l159 + l186 + l243 + 1000000000000 l15 + l134
      + l136 + l150 + l155 + l172 + l202 + l241 + 1000000000000 l16 + l133
      + l138 + l152 + l200 + l227 + l235 + 1000000000000 l17 + l131 + l132
      + l157 + l158 + l181 + l207 + l236 + l238 + 1000000000000 l18 + l97
      + l122 + l160 + 1000000000000 l19 + l124 + l127 + l135 + l141 + l156
      + l183 + l184 + 1000000000000 l20 + l123 + l130 + l168 + l177 + l180
      + l193 + 1000000000000 l21 + l108 + l109 + l110 + l112 + l146 + l151
      + l171 + l179 + l195 + l203 + l219 + l237 + l247 + l248
      + 1000000000000 l22 + l92 + l102 + l106 + l111 + l121 + l140 + l178
      + l199 + 1000000000000 l23 + l98 + l100 + l125 + l126 + l170 + l173
      + l185 + l191 + l194 + l211 + l213 + l240 + l245 + 1000000000000 l24
      + l96 + 1000000000000 l25 + l90 + l99 + l107 + l154 + 1000000000000 l26
      + l88 + l103 + l142 + l190 + l196 + l201 + l229 + l233 + l244
      + 1000000000000 l27 + l85 + l87 + l95 + l197 + l198 + l242
      + 1000000000000 l28 + l81 + l86 + l89 + l91 + l94 + l101 + l174 + l208
      + 1000000000000 l29 + l78 + l83 + l105 + l137 + l205 + 1000000000000 l30
      + l75 + l79 + l187 + l204 + l206 + l217 + l218 + l220 + 1000000000000 l31
      + l67 + l70 + l162 + 1000000000000 l32 + l76 + l82 + l84 + l93 + l209
      + l210 + l216 + l221 + l222 + l223 + l224 + l225 + l226 + l230 + l234
      + 1000000000000 l33 + l68 + l69 + l74 + 1000000000000 l34 + l62 + l65
      + l71 + l72 + l73 + 1000000000000 l35 + l66 + l80 + l212 + l228 + l231
      + l232 + 1000000000000 l36 + l64 + l77 + 1000000000000 l37 + l61 + l63
      + 1000000000000 l38 + l60 + 1000000000000 l39 + l55 + l57 + l58
      + 1000000000000 l40 + l53 + l54 + l56 + l59 + 1000000000000 l41 + l50
      + l51 + l52 + 1000000000000 l42 + 1000000000000 l43 + 1000000000000 l44
      + 1000000000000 l45 + 1000000000000 l46 + 1000000000000 l47
      + 1000000000000 l48 + 1000000000000 l49
Subject To
 c1:  l0 + l113  = 1
 c2:  l1 + l104 + l114  = 1
 c3:  l2 + l115  = 1
 c4:  l3 + l116  = 1
 c5:  l4 + l117  = 1
 c6:  l5 + l118  = 1
 c7:  l6 + l119  = 1
 c8:  l7 + l164  = 1
 c9:  l8 + l120 + l128 + l215  = 1
 c10: l9 + l149 + l165 + l214  = 1
 c11: l10 + l153 + l166 + l246  = 1
 c12: l11 + l143 + l163 + l169 + l188 + l192  = 1
 c13: l12 + l129 + l167 + l175 + l182 + l189 + l239  = 1
 c14: l13 + l145 + l148 + l161 + l176  = 1
 c15: l14 + l139 + l144 + l147 + l159 + l186 + l243  = 1
 c16: l15 + l134 + l136 + l150 + l155 + l172 + l202 + l241  = 1
 c17: l16 + l133 + l138 + l152 + l200 + l227 + l235  = 1
 c18: l17 + l131 + l132 + l157 + l158 + l181 + l207 + l236 + l238  = 1
 c19: l18 + l97 + l122 + l160  = 1
 c20: l19 + l124 + l127 + l135 + l141 + l156 + l183 + l184  = 1
 c21: l20 + l123 + l130 + l168 + l177 + l180 + l193  = 1
 c22: l21 + l108 + l109 + l110 + l112 + l146 + l151 + l171 + l179 + l195 + l203
      + l219 + l237 + l247 + l248  = 1
 c23: l22 + l92 + l102 + l106 + l111 + l121 + l140 + l178 + l199  = 1
 c24: l23 + l98 + l100 + l125 + l126 + l170 + l173 + l185 + l191 + l194 + l211
      + l213 + l240 + l245  = 1
 c25: l97 + l124 + l183 + l248 + l24 + l96  = 1
 c26: l184 + l180 + l179 + l92 + l126 + l96 + l25 + l90 + l99 + l107 + l154
       = 1
 c27: l160 + l171 + l90 + l99 + l26 + l88 + l103 + l142 + l190 + l196 + l201
      + l229 + l233 + l244  = 1
 c28: l141 + l247 + l140 + l88 + l196 + l201 + l229 + l233 + l27 + l85 + l87
      + l95 + l197 + l198 + l242  = 1
 c29: l131 + l237 + l240 + l85 + l28 + l81 + l86 + l89 + l91 + l94 + l101
      + l174 + l208  = 1
 c30: l177 + l109 + l170 + l211 + l213 + l190 + l81 + l29 + l78 + l83 + l105
      + l137 + l205  = 1
 c31: l207 + l122 + l130 + l195 + l219 + l103 + l197 + l242 + l208 + l78 + l30
      + l75 + l79 + l187 + l204 + l206 + l217 + l218 + l220  = 1
 c32: l157 + l121 + l178 + l199 + l142 + l86 + l101 + l174 + l137 + l79 + l31
      + l67 + l70 + l162  = 1
 c33: l238 + l156 + l168 + l203 + l191 + l194 + l95 + l83 + l205 + l75 + l217
      + l220 + l70 + l32 + l76 + l82 + l84 + l93 + l209 + l210 + l216 + l221
      + l222 + l223 + l224 + l225 + l226 + l230 + l234  = 1
 c34: l181 + l123 + l193 + l151 + l98 + l185 + l87 + l198 + l89 + l187 + l204
      + l206 + l33 + l68 + l69 + l74  = 1
 c35: l155 + l200 + l135 + l154 + l91 + l105 + l84 + l34 + l62 + l65 + l71
      + l72 + l73  = 1
 c36: l241 + l152 + l127 + l100 + l244 + l218 + l162 + l84 + l209 + l216 + l226
      + l68 + l69 + l35 + l66 + l80 + l212 + l228 + l231 + l232  = 1
 c37: l159 + l136 + l158 + l110 + l125 + l245 + l244 + l95 + l67 + l74 + l65
      + l72 + l80 + l36 + l64 + l77  = 1
 c38: l186 + l202 + l133 + l112 + l146 + l106 + l173 + l107 + l190 + l198 + l94
      + l174 + l208 + l83 + l205 + l79 + l206 + l218 + l220 + l162 + l209
      + l216 + l224 + l225 + l234 + l62 + l73 + l80 + l212 + l228 + l231 + l232
      + l64 + l77 + l37 + l61 + l63  = 1
 c39: l148 + l139 + l111 + l125 + l88 + l86 + l76 + l74 + l62 + l71 + l66 + l61
      + l63 + l38 + l60  = 1
 c40: l176 + l243 + l172 + l102 + l111 + l173 + l245 + l107 + l103 + l196
      + l242 + l137 + l187 + l67 + l82 + l93 + l224 + l230 + l234 + l65 + l71
      + l212 + l231 + l77 + l63 + l60 + l39 + l55 + l57 + l58  = 1
 c41: l169 + l129 + l175 + l102 + l154 + l229 + l94 + l101 + l105 + l217 + l76
      + l82 + l221 + l222 + l230 + l69 + l72 + l228 + l231 + l64 + l55 + l57
      + l58 + l40 + l53 + l54 + l56 + l59  = 1
 c42: l149 + l134 + l138 + l108 + l146 + l100 + l233 + l204 + l210 + l221
      + l234 + l69 + l65 + l73 + l232 + l61 + l60 + l57 + l53 + l54 + l56 + l59
      + l41 + l50 + l51 + l52  = 1
 c43: l143 + l189 + l127 + l135 + l112 + l142 + l91 + l78 + l82 + l68 + l74
      + l64 + l63 + l60 + l55 + l53 + l54 + l59 + l50 + l51 + l52 + l42  = 1
 c44: l128 + l165 + l147 + l150 + l235 + l132 + l108 + l98 + l96 + l90 + l85
      + l81 + l94 + l76 + l93 + l210 + l68 + l71 + l66 + l77 + l61 + l55 + l58
      + l53 + l54 + l56 + l50 + l51 + l52 + l43  = 1
 c45: l153 + l188 + l167 + l145 + l144 + l150 + l108 + l151 + l106 + l191 + l89
      + l105 + l75 + l67 + l62 + l55 + l57 + l53 + l54 + l56 + l59 + l50 + l51
      + l52 + l44  = 1
 c46: l120 + l166 + l192 + l147 + l138 + l132 + l193 + l110 + l199 + l170 + l99
      + l89 + l78 + l70 + l93 + l72 + l73 + l66 + l63 + l55 + l57 + l58 + l53
      + l54 + l56 + l50 + l51 + l52 + l45  = 1
 c47: l163 + l239 + l161 + l158 + l168 + l177 + l106 + l121 + l107 + l154 + l87
      + l81 + l91 + l75 + l93 + l224 + l71 + l72 + l73 + l66 + l80 + l212 + l64
      + l61 + l57 + l58 + l53 + l59 + l50 + l51 + l52 + l46  = 1
 c48: l166 + l188 + l192 + l167 + l239 + l134 + l109 + l195 + l92 + l185 + l194
      + l211 + l90 + l85 + l87 + l70 + l82 + l209 + l210 + l62 + l80 + l77
      + l60 + l58 + l54 + l56 + l59 + l50 + l51 + l52 + l47  = 1
 c49: l129 + l182 + l189 + l239 + l124 + l110 + l102 + l98 + l96 + l87 + l81
      + l86 + l89 + l79 + l70 + l66 + l64 + l77 + l61 + l60 + l55 + l57 + l56
      + l50 + l51 + l48  = 1
 c50: l104 + l247 + l102 + l99 + l87 + l86 + l83 + l75 + l82 + l68 + l65 + l72
      + l80 + l61 + l63 + l55 + l58 + l59 + l50 + l49  = 1
Bounds
      l207 = 0
      l122 = 0
      l160 = 0
      l130 = 0
      l171 = 0
      l195 = 0
      l219 = 0
      l90 = 0
      l99 = 0
      l88 = 0
      l142 = 0
      l190 = 0
      l196 = 0
      l201 = 0
      l229 = 0
      l233 = 0
      l244 = 0
      l197 = 0
      l242 = 0
      l208 = 0
      l78 = 0
      l75 = 0
      l79 = 0
      l187 = 0
      l204 = 0
      l206 = 0
      l217 = 0
      l218 = 0
      l220 = 0
End
